XSym
0023
9db3c0c2fa9244b6f2f5e9e2ff2149d2
Versions/Current/libpng
                                                                                                                                                                                                                                                                                                                                                                                                                                                                                                                                                                                                                                                                                                                                                                                                                                                                                                                                                                                                                                        